10
0 100 55 90 79 29 22 62 1 11 
9 0 42 63 78 5 3 30 71 31 
72 59 0 23 17 13 79 87 61 9 
56 94 80 0 52 99 31 85 97 38 
17 50 30 4 0 72 24 69 27 10 
79 15 33 41 16 0 44 13 3 83 
74 92 88 95 17 27 0 82 52 34 
72 43 59 50 25 78 63 0 42 20 
31 75 21 48 64 71 30 78 0 56 
81 2 3 72 77 91 13 7 6 0 
